(set-logic QF_S)
(declare-fun var_0xINPUT_92517 () String)
(assert (and (= (len var_0xINPUT_92517) 0) (= (len var_0xINPUT_92517) 0) (not (= var_0xINPUT_92517 "Example:")) (not (= var_0xINPUT_92517 "fB9De3KAY9"))))
(check-sat var_0xINPUT_92517)